words_hard_train/1857.qaiger
aag 103 16 0 1 87
2
4
8
12
16
20
28
30
34
38
42
46
50
92
94
178
207
6 3 5
10 6 9
14 10 13
18 14 17
22 19 20
24 18 21
26 23 25
32 29 31
36 32 35
40 36 39
44 40 43
48 44 47
52 49 50
54 48 51
56 53 55
58 45 46
60 59 49
62 41 42
64 63 45
66 37 38
68 28 30
70 68 34
72 66 70
74 73 41
76 65 75
78 61 76
80 56 79
82 57 78
84 81 83
86 27 84
88 26 85
90 87 89
96 92 95
98 93 94
100 97 99
102 100 25
104 101 24
106 103 105
108 107 55
110 106 54
112 109 111
114 113 83
116 112 82
118 115 117
120 15 16
122 121 19
124 60 77
126 125 79
128 123 127
130 122 126
132 129 131
134 11 12
136 135 15
138 74 43
140 139 77
142 137 140
144 136 141
146 143 145
148 7 8
150 149 11
152 71 37
154 152 39
156 74 155
158 151 156
160 150 157
162 159 161
164 2 4
166 165 7
168 69 35
170 169 152
172 167 171
174 166 170
176 173 175
180 179 28
182 4 31
184 5 30
186 183 185
188 181 186
190 178 29
192 191 187
194 189 193
196 176 194
198 163 196
200 147 198
202 132 200
204 119 202
206 91 204
i0 2 y1[2]
i1 2 y1[1]
i2 2 y1[3]
i3 2 y1[4]
i4 2 y1[5]
i5 2 y1[6]
i6 1 x2[0]
i7 1 x2[1]
i8 1 x2[2]
i9 1 x2[3]
i10 1 x2[4]
i11 1 x2[5]
i12 1 x2[6]
i13 2 y1[7]
i14 1 x2[7]
i15 2 y1[0]
o0 bool[0]
c
simplified
  !=
    subtract
      invert
        1
      1 x2
    subtract
      1
      2 y1
