words_hard_train/1857.qaiger.qdimacs
p cnf 103 262
a 14 15 47 17 19 21 23 25 0
e 1 2 3 4 5 6 7 8 9 10 11 12 13 16 18 20 22 24 26 27 28 29 30 31 32 33 34 35 36 37 38 39 40 41 42 43 44 45 46 48 49 50 51 52 53 54 55 56 57 58 59 60 61 62 63 64 65 66 67 68 69 70 71 72 73 74 75 76 77 78 79 80 81 82 83 84 85 86 87 88 89 90 91 92 93 94 95 96 97 98 99 100 101 102 103 0
1 2 3 0
-1 -3 0
-2 -3 0
-3 4 5 0
3 -5 0
-4 -5 0
-5 6 7 0
5 -7 0
-6 -7 0
-7 8 9 0
7 -9 0
-8 -9 0
9 -10 11 0
-9 -11 0
10 -11 0
-9 10 12 0
9 -12 0
-10 -12 0
11 12 13 0
-11 -13 0
-12 -13 0
14 15 16 0
-14 -16 0
-15 -16 0
-16 17 18 0
16 -18 0
-17 -18 0
-18 19 20 0
18 -20 0
-19 -20 0
-20 21 22 0
20 -22 0
-21 -22 0
-22 23 24 0
22 -24 0
-23 -24 0
24 -25 26 0
-24 -26 0
25 -26 0
-24 25 27 0
24 -27 0
-25 -27 0
26 27 28 0
-26 -28 0
-27 -28 0
22 -23 29 0
-22 -29 0
23 -29 0
29 24 30 0
-29 -30 0
-24 -30 0
20 -21 31 0
-20 -31 0
21 -31 0
31 22 32 0
-31 -32 0
-22 -32 0
18 -19 33 0
-18 -33 0
19 -33 0
-14 -15 34 0
14 -34 0
15 -34 0
-34 -17 35 0
34 -35 0
17 -35 0
-33 -35 36 0
33 -36 0
35 -36 0
36 20 37 0
-36 -37 0
-20 -37 0
32 37 38 0
-32 -38 0
-37 -38 0
30 -38 39 0
-30 -39 0
38 -39 0
-28 39 40 0
28 -40 0
-39 -40 0
28 -39 41 0
-28 -41 0
39 -41 0
40 41 42 0
-40 -42 0
-41 -42 0
13 -42 43 0
-13 -43 0
42 -43 0
-13 42 44 0
13 -44 0
-42 -44 0
43 44 45 0
-43 -45 0
-44 -45 0
-46 47 48 0
46 -48 0
-47 -48 0
46 -47 49 0
-46 -49 0
47 -49 0
48 49 50 0
-48 -50 0
-49 -50 0
-50 12 51 0
50 -51 0
-12 -51 0
50 -12 52 0
-50 -52 0
12 -52 0
51 52 53 0
-51 -53 0
-52 -53 0
53 27 54 0
-53 -54 0
-27 -54 0
-53 -27 55 0
53 -55 0
27 -55 0
54 55 56 0
-54 -56 0
-55 -56 0
56 41 57 0
-56 -57 0
-41 -57 0
-56 -41 58 0
56 -58 0
41 -58 0
57 58 59 0
-57 -59 0
-58 -59 0
7 -8 60 0
-7 -60 0
8 -60 0
60 9 61 0
-60 -61 0
-9 -61 0
-30 38 62 0
30 -62 0
-38 -62 0
62 39 63 0
-62 -63 0
-39 -63 0
61 63 64 0
-61 -64 0
-63 -64 0
-61 -63 65 0
61 -65 0
63 -65 0
64 65 66 0
-64 -66 0
-65 -66 0
5 -6 67 0
-5 -67 0
6 -67 0
67 7 68 0
-67 -68 0
-7 -68 0
-37 21 69 0
37 -69 0
-21 -69 0
69 38 70 0
-69 -70 0
-38 -70 0
68 -70 71 0
-68 -71 0
70 -71 0
-68 70 72 0
68 -72 0
-70 -72 0
71 72 73 0
-71 -73 0
-72 -73 0
3 -4 74 0
-3 -74 0
4 -74 0
74 5 75 0
-74 -75 0
-5 -75 0
35 18 76 0
-35 -76 0
-18 -76 0
-76 19 77 0
76 -77 0
-19 -77 0
-37 77 78 0
37 -78 0
-77 -78 0
75 -78 79 0
-75 -79 0
78 -79 0
-75 78 80 0
75 -80 0
-78 -80 0
79 80 81 0
-79 -81 0
-80 -81 0
-1 -2 82 0
1 -82 0
2 -82 0
82 3 83 0
-82 -83 0
-3 -83 0
34 17 84 0
-34 -84 0
-17 -84 0
84 -76 85 0
-84 -85 0
76 -85 0
83 85 86 0
-83 -86 0
-85 -86 0
-83 -85 87 0
83 -87 0
85 -87 0
86 87 88 0
-86 -88 0
-87 -88 0
89 -14 90 0
-89 -90 0
14 -90 0
-2 15 91 0
2 -91 0
-15 -91 0
2 -15 92 0
-2 -92 0
15 -92 0
91 92 93 0
-91 -93 0
-92 -93 0
90 -93 94 0
-90 -94 0
93 -94 0
-89 14 95 0
89 -95 0
-14 -95 0
95 93 96 0
-95 -96 0
-93 -96 0
94 96 97 0
-94 -97 0
-96 -97 0
-88 -97 98 0
88 -98 0
97 -98 0
81 -98 99 0
-81 -99 0
98 -99 0
73 -99 100 0
-73 -100 0
99 -100 0
-66 -100 101 0
66 -101 0
100 -101 0
59 -101 102 0
-59 -102 0
101 -102 0
45 -102 103 0
-45 -103 0
102 -103 0
-103 0
